Minimize
	value: tt

Subject to
tt + 2000 s_1_1 > 0
tt - t_1_1 - 2002.500000 s_1_1 + 2.500000 s_1_6 > -1998.749678
tt + 2000 s_2_1 > 0
tt - t_2_1 - 2005.000000 s_2_1 + 5.000000 s_2_6 > -1989.246200
tt + 2000 s_1_2 > 0
tt - t_1_2 - 2002.500000 s_1_2 + 2.500000 s_1_7 > -1998.438600
tt + 2000 s_2_2 > 0
tt - t_2_2 - 2005.000000 s_2_2 + 5.000000 s_2_7 > -1989.083700
tt + 2000 s_1_3 > 0
tt - t_1_3 - 2002.500000 s_1_3 + 2.500000 s_1_7 > -1998.063631
tt + 2000 s_2_3 > 0
tt - t_2_3 - 2005.000000 s_2_3 + 5.000000 s_2_7 > -1985.421300
tt + 2000 s_1_4 > 0
tt - t_1_4 - 2010.000000 s_1_4 + 10.000000 s_1_7 > -1998.992724
tt + 2000 s_2_4 > 0
tt - t_2_4 - 2020.000000 s_2_4 + 20.000000 s_2_7 > -1989.085700
tt + 2000 s_1_5 > 0
tt - t_1_5 - 2010.000000 s_1_5 + 10.000000 s_1_6 > -1999.146067
tt + 2000 s_2_5 > 0
tt - t_2_5 - 2020.000000 s_2_5 + 20.000000 s_2_6 > -1991.566100
tt + 2000 s_1_6 > 0
tt - t_1_6 - 2000.000000 s_1_6 > -1996.757711
tt + 2000 s_2_6 > 0
tt - t_2_6 - 2000.000000 s_2_6 > -1984.837026
tt + 2000 s_1_7 > 0
tt - t_1_7 - 2000.000000 s_1_7 > -1998.181500
tt + 2000 s_2_7 > 0
tt - t_2_7 - 2000.000000 s_2_7 > -1993.941500
tt + 2000 s_1_8 > 0
tt - t_1_8 - 2062.500000 s_1_8 + 62.500000 s_1_4 > -1999.847000
tt + 2000 s_2_8 > 0
tt - t_2_8 - 2125.000000 s_2_8 + 125.000000 s_2_4 > -1998.664800
s_1_1 + s_2_1  = 1
s_1_2 + s_2_2  = 1
s_1_3 + s_2_3  = 1
s_1_4 + s_2_4  = 1
s_1_5 + s_2_5  = 1
s_1_6 + s_2_6  = 1
s_1_7 + s_2_7  = 1
s_1_8 + s_2_8  = 1
t_1_1 - t_1_2 + 2000.000000 u_1_1_2 - 2.500000 s_1_2 + 2.500000 s_1_7 > 1.561400
t_1_2 - t_1_1 - 2000.000000 u_1_1_2 > -1998.749678
t_2_1 - t_2_2 + 2000.000000 u_2_1_2 - 5.000000 s_2_2 + 5.000000 s_2_7 > 10.916300
t_2_2 - t_2_1 - 2000.000000 u_2_1_2 > -1989.246200
t_1_1 - t_1_3 + 2000.000000 u_1_1_3 - 2.500000 s_1_3 + 2.500000 s_1_7 > 1.936369
t_1_3 - t_1_1 - 2000.000000 u_1_1_3 > -1998.749678
t_2_1 - t_2_3 + 2000.000000 u_2_1_3 - 5.000000 s_2_3 + 5.000000 s_2_7 > 14.578700
t_2_3 - t_2_1 - 2000.000000 u_2_1_3 > -1989.246200
t_1_1 - t_1_4 + 2000.000000 u_1_1_4 - 5.000000 s_1_4 + 5.000000 s_1_7 > 1.007276
t_1_4 - t_1_1 - 2000.000000 u_1_1_4 > -1998.749678
t_2_1 - t_2_4 + 2000.000000 u_2_1_4 - 10.000000 s_2_4 + 10.000000 s_2_7 > 10.914300
t_2_4 - t_2_1 - 2000.000000 u_2_1_4 > -1989.246200
t_1_1 - t_1_5 + 2000.000000 u_1_1_5 - 5.000000 s_1_5 + 5.000000 s_1_6 > 0.853933
t_1_5 - t_1_1 - 2000.000000 u_1_1_5 > -1998.749678
t_2_1 - t_2_5 + 2000.000000 u_2_1_5 - 10.000000 s_2_5 + 10.000000 s_2_6 > 8.433900
t_2_5 - t_2_1 - 2000.000000 u_2_1_5 > -1989.246200
t_1_1 - t_1_6 - 2000.000000 s_1_6 > -1994.257711
t_1_1 - t_2_6 - 2000.000000 s_2_6 > -1979.837026
t_2_1 - t_1_6 - 2000.000000 s_1_6 > -1994.257711
t_2_1 - t_2_6 - 2000.000000 s_2_6 > -1979.837026
t_1_1 - t_1_7 + 2000.000000 u_1_1_7 > 1.818500
t_1_7 - t_1_1 - 2000.000000 u_1_1_7 > -1998.749678
t_2_1 - t_2_7 + 2000.000000 u_2_1_7 > 6.058500
t_2_7 - t_2_1 - 2000.000000 u_2_1_7 > -1989.246200
t_1_8 - t_1_1 - 2000.000000 s_1_1 > -1996.249678
t_1_8 - t_2_1 - 2000.000000 s_2_1 > -1984.246200
t_2_8 - t_1_1 - 2000.000000 s_1_1 > -1996.249678
t_2_8 - t_2_1 - 2000.000000 s_2_1 > -1984.246200
t_1_2 - t_1_1 + 2000.000000 u_1_2_1 - 2.500000 s_1_1 + 2.500000 s_1_6 > 1.250322
t_1_1 - t_1_2 - 2000.000000 u_1_2_1 > -1998.438600
t_2_2 - t_2_1 + 2000.000000 u_2_2_1 - 5.000000 s_2_1 + 5.000000 s_2_6 > 10.753800
t_2_1 - t_2_2 - 2000.000000 u_2_2_1 > -1989.083700
t_1_2 - t_1_3 + 2000.000000 u_1_2_3 - 2.500000 s_1_3 + 2.500000 s_1_7 > 1.936369
t_1_3 - t_1_2 - 2000.000000 u_1_2_3 > -1998.438600
t_2_2 - t_2_3 + 2000.000000 u_2_2_3 - 5.000000 s_2_3 + 5.000000 s_2_7 > 14.578700
t_2_3 - t_2_2 - 2000.000000 u_2_2_3 > -1989.083700
t_1_2 - t_1_4 + 2000.000000 u_1_2_4 - 5.000000 s_1_4 + 5.000000 s_1_7 > 1.007276
t_1_4 - t_1_2 - 2000.000000 u_1_2_4 > -1998.438600
t_2_2 - t_2_4 + 2000.000000 u_2_2_4 - 10.000000 s_2_4 + 10.000000 s_2_7 > 10.914300
t_2_4 - t_2_2 - 2000.000000 u_2_2_4 > -1989.083700
t_1_2 - t_1_5 + 2000.000000 u_1_2_5 - 5.000000 s_1_5 + 5.000000 s_1_6 > 0.853933
t_1_5 - t_1_2 - 2000.000000 u_1_2_5 > -1998.438600
t_2_2 - t_2_5 + 2000.000000 u_2_2_5 - 10.000000 s_2_5 + 10.000000 s_2_6 > 8.433900
t_2_5 - t_2_2 - 2000.000000 u_2_2_5 > -1989.083700
t_1_2 - t_1_6 + 2000.000000 u_1_2_6 > 3.242289
t_1_6 - t_1_2 - 2000.000000 u_1_2_6 > -1998.438600
t_2_2 - t_2_6 + 2000.000000 u_2_2_6 > 15.162974
t_2_6 - t_2_2 - 2000.000000 u_2_2_6 > -1989.083700
t_1_2 - t_1_7 - 2000.000000 s_1_7 > -1995.681500
t_1_2 - t_2_7 - 2000.000000 s_2_7 > -1988.941500
t_2_2 - t_1_7 - 2000.000000 s_1_7 > -1995.681500
t_2_2 - t_2_7 - 2000.000000 s_2_7 > -1988.941500
t_1_8 - t_1_2 - 2000.000000 s_1_2 > -1995.938600
t_1_8 - t_2_2 - 2000.000000 s_2_2 > -1984.083700
t_2_8 - t_1_2 - 2000.000000 s_1_2 > -1995.938600
t_2_8 - t_2_2 - 2000.000000 s_2_2 > -1984.083700
t_1_3 - t_1_1 + 2000.000000 u_1_3_1 - 2.500000 s_1_1 + 2.500000 s_1_6 > 1.250322
t_1_1 - t_1_3 - 2000.000000 u_1_3_1 > -1998.063631
t_2_3 - t_2_1 + 2000.000000 u_2_3_1 - 5.000000 s_2_1 + 5.000000 s_2_6 > 10.753800
t_2_1 - t_2_3 - 2000.000000 u_2_3_1 > -1985.421300
t_1_3 - t_1_2 + 2000.000000 u_1_3_2 - 2.500000 s_1_2 + 2.500000 s_1_7 > 1.561400
t_1_2 - t_1_3 - 2000.000000 u_1_3_2 > -1998.063631
t_2_3 - t_2_2 + 2000.000000 u_2_3_2 - 5.000000 s_2_2 + 5.000000 s_2_7 > 10.916300
t_2_2 - t_2_3 - 2000.000000 u_2_3_2 > -1985.421300
t_1_4 - t_1_3 - 2000.000000 s_1_3 > -1995.563631
t_1_4 - t_2_3 - 2000.000000 s_2_3 > -1980.421300
t_2_4 - t_1_3 - 2000.000000 s_1_3 > -1995.563631
t_2_4 - t_2_3 - 2000.000000 s_2_3 > -1980.421300
t_1_3 - t_1_5 + 2000.000000 u_1_3_5 - 5.000000 s_1_5 + 5.000000 s_1_6 > 0.853933
t_1_5 - t_1_3 - 2000.000000 u_1_3_5 > -1998.063631
t_2_3 - t_2_5 + 2000.000000 u_2_3_5 - 10.000000 s_2_5 + 10.000000 s_2_6 > 8.433900
t_2_5 - t_2_3 - 2000.000000 u_2_3_5 > -1985.421300
t_1_3 - t_1_6 + 2000.000000 u_1_3_6 > 3.242289
t_1_6 - t_1_3 - 2000.000000 u_1_3_6 > -1998.063631
t_2_3 - t_2_6 + 2000.000000 u_2_3_6 > 15.162974
t_2_6 - t_2_3 - 2000.000000 u_2_3_6 > -1985.421300
t_1_3 - t_1_7 - 2000.000000 s_1_7 > -1995.681500
t_1_3 - t_2_7 - 2000.000000 s_2_7 > -1988.941500
t_2_3 - t_1_7 - 2000.000000 s_1_7 > -1995.681500
t_2_3 - t_2_7 - 2000.000000 s_2_7 > -1988.941500
t_1_8 - t_1_3 - 2000.000000 s_1_3 > -1995.563631
t_1_8 - t_2_3 - 2000.000000 s_2_3 > -1980.421300
t_2_8 - t_1_3 - 2000.000000 s_1_3 > -1995.563631
t_2_8 - t_2_3 - 2000.000000 s_2_3 > -1980.421300
t_1_4 - t_1_1 + 2000.000000 u_1_4_1 - 2.500000 s_1_1 + 2.500000 s_1_6 > 1.250322
t_1_1 - t_1_4 - 2000.000000 u_1_4_1 > -1998.992724
t_2_4 - t_2_1 + 2000.000000 u_2_4_1 - 5.000000 s_2_1 + 5.000000 s_2_6 > 10.753800
t_2_1 - t_2_4 - 2000.000000 u_2_4_1 > -1989.085700
t_1_4 - t_1_2 + 2000.000000 u_1_4_2 - 2.500000 s_1_2 + 2.500000 s_1_7 > 1.561400
t_1_2 - t_1_4 - 2000.000000 u_1_4_2 > -1998.992724
t_2_4 - t_2_2 + 2000.000000 u_2_4_2 - 5.000000 s_2_2 + 5.000000 s_2_7 > 10.916300
t_2_2 - t_2_4 - 2000.000000 u_2_4_2 > -1989.085700
t_1_4 - t_1_3 - 2000.000000 s_1_3 > -1995.563631
t_1_4 - t_2_3 - 2000.000000 s_2_3 > -1980.421300
t_2_4 - t_1_3 - 2000.000000 s_1_3 > -1995.563631
t_2_4 - t_2_3 - 2000.000000 s_2_3 > -1980.421300
t_1_4 - t_1_5 + 2000.000000 u_1_4_5 - 5.000000 s_1_5 + 5.000000 s_1_6 > 0.853933
t_1_5 - t_1_4 - 2000.000000 u_1_4_5 > -1998.992724
t_2_4 - t_2_5 + 2000.000000 u_2_4_5 - 10.000000 s_2_5 + 10.000000 s_2_6 > 8.433900
t_2_5 - t_2_4 - 2000.000000 u_2_4_5 > -1989.085700
t_1_4 - t_1_6 + 2000.000000 u_1_4_6 > 3.242289
t_1_6 - t_1_4 - 2000.000000 u_1_4_6 > -1998.992724
t_2_4 - t_2_6 + 2000.000000 u_2_4_6 > 15.162974
t_2_6 - t_2_4 - 2000.000000 u_2_4_6 > -1989.085700
t_1_4 - t_1_7 - 2000.000000 s_1_7 > -1995.681500
t_1_4 - t_2_7 - 2000.000000 s_2_7 > -1988.941500
t_2_4 - t_1_7 - 2000.000000 s_1_7 > -1995.681500
t_2_4 - t_2_7 - 2000.000000 s_2_7 > -1988.941500
t_1_8 - t_1_4 - 2000.000000 s_1_4 > -1993.992724
t_1_8 - t_2_4 - 2000.000000 s_2_4 > -1979.085700
t_2_8 - t_1_4 - 2000.000000 s_1_4 > -1993.992724
t_2_8 - t_2_4 - 2000.000000 s_2_4 > -1979.085700
t_1_5 - t_1_1 + 2000.000000 u_1_5_1 - 2.500000 s_1_1 + 2.500000 s_1_6 > 1.250322
t_1_1 - t_1_5 - 2000.000000 u_1_5_1 > -1999.146067
t_2_5 - t_2_1 + 2000.000000 u_2_5_1 - 5.000000 s_2_1 + 5.000000 s_2_6 > 10.753800
t_2_1 - t_2_5 - 2000.000000 u_2_5_1 > -1991.566100
t_1_5 - t_1_2 + 2000.000000 u_1_5_2 - 2.500000 s_1_2 + 2.500000 s_1_7 > 1.561400
t_1_2 - t_1_5 - 2000.000000 u_1_5_2 > -1999.146067
t_2_5 - t_2_2 + 2000.000000 u_2_5_2 - 5.000000 s_2_2 + 5.000000 s_2_7 > 10.916300
t_2_2 - t_2_5 - 2000.000000 u_2_5_2 > -1991.566100
t_1_5 - t_1_3 + 2000.000000 u_1_5_3 - 2.500000 s_1_3 + 2.500000 s_1_7 > 1.936369
t_1_3 - t_1_5 - 2000.000000 u_1_5_3 > -1999.146067
t_2_5 - t_2_3 + 2000.000000 u_2_5_3 - 5.000000 s_2_3 + 5.000000 s_2_7 > 14.578700
t_2_3 - t_2_5 - 2000.000000 u_2_5_3 > -1991.566100
t_1_5 - t_1_4 + 2000.000000 u_1_5_4 - 5.000000 s_1_4 + 5.000000 s_1_7 > 1.007276
t_1_4 - t_1_5 - 2000.000000 u_1_5_4 > -1999.146067
t_2_5 - t_2_4 + 2000.000000 u_2_5_4 - 10.000000 s_2_4 + 10.000000 s_2_7 > 10.914300
t_2_4 - t_2_5 - 2000.000000 u_2_5_4 > -1991.566100
t_1_5 - t_1_6 - 2000.000000 s_1_6 > -1994.257711
t_1_5 - t_2_6 - 2000.000000 s_2_6 > -1979.837026
t_2_5 - t_1_6 - 2000.000000 s_1_6 > -1994.257711
t_2_5 - t_2_6 - 2000.000000 s_2_6 > -1979.837026
t_1_5 - t_1_7 - 2000.000000 s_1_7 > -1995.681500
t_1_5 - t_2_7 - 2000.000000 s_2_7 > -1988.941500
t_2_5 - t_1_7 - 2000.000000 s_1_7 > -1995.681500
t_2_5 - t_2_7 - 2000.000000 s_2_7 > -1988.941500
t_1_8 - t_1_5 - 2000.000000 s_1_5 > -1994.146067
t_1_8 - t_2_5 - 2000.000000 s_2_5 > -1981.566100
t_2_8 - t_1_5 - 2000.000000 s_1_5 > -1994.146067
t_2_8 - t_2_5 - 2000.000000 s_2_5 > -1981.566100
t_1_1 - t_1_6 - 2000.000000 s_1_6 > -1994.257711
t_1_1 - t_2_6 - 2000.000000 s_2_6 > -1979.837026
t_2_1 - t_1_6 - 2000.000000 s_1_6 > -1994.257711
t_2_1 - t_2_6 - 2000.000000 s_2_6 > -1979.837026
t_1_6 - t_1_2 + 2000.000000 u_1_6_2 - 2.500000 s_1_2 + 2.500000 s_1_7 > 1.561400
t_1_2 - t_1_6 - 2000.000000 u_1_6_2 > -1996.757711
t_2_6 - t_2_2 + 2000.000000 u_2_6_2 - 5.000000 s_2_2 + 5.000000 s_2_7 > 10.916300
t_2_2 - t_2_6 - 2000.000000 u_2_6_2 > -1984.837026
t_1_6 - t_1_3 + 2000.000000 u_1_6_3 - 2.500000 s_1_3 + 2.500000 s_1_7 > 1.936369
t_1_3 - t_1_6 - 2000.000000 u_1_6_3 > -1996.757711
t_2_6 - t_2_3 + 2000.000000 u_2_6_3 - 5.000000 s_2_3 + 5.000000 s_2_7 > 14.578700
t_2_3 - t_2_6 - 2000.000000 u_2_6_3 > -1984.837026
t_1_6 - t_1_4 + 2000.000000 u_1_6_4 - 5.000000 s_1_4 + 5.000000 s_1_7 > 1.007276
t_1_4 - t_1_6 - 2000.000000 u_1_6_4 > -1996.757711
t_2_6 - t_2_4 + 2000.000000 u_2_6_4 - 10.000000 s_2_4 + 10.000000 s_2_7 > 10.914300
t_2_4 - t_2_6 - 2000.000000 u_2_6_4 > -1984.837026
t_1_5 - t_1_6 - 2000.000000 s_1_6 > -1994.257711
t_1_5 - t_2_6 - 2000.000000 s_2_6 > -1979.837026
t_2_5 - t_1_6 - 2000.000000 s_1_6 > -1994.257711
t_2_5 - t_2_6 - 2000.000000 s_2_6 > -1979.837026
t_1_6 - t_1_7 + 2000.000000 u_1_6_7 > 1.818500
t_1_7 - t_1_6 - 2000.000000 u_1_6_7 > -1996.757711
t_2_6 - t_2_7 + 2000.000000 u_2_6_7 > 6.058500
t_2_7 - t_2_6 - 2000.000000 u_2_6_7 > -1984.837026
t_1_7 - t_1_1 + 2000.000000 u_1_7_1 - 2.500000 s_1_1 + 2.500000 s_1_6 > 1.250322
t_1_1 - t_1_7 - 2000.000000 u_1_7_1 > -1998.181500
t_2_7 - t_2_1 + 2000.000000 u_2_7_1 - 5.000000 s_2_1 + 5.000000 s_2_6 > 10.753800
t_2_1 - t_2_7 - 2000.000000 u_2_7_1 > -1993.941500
t_1_2 - t_1_7 - 2000.000000 s_1_7 > -1995.681500
t_1_2 - t_2_7 - 2000.000000 s_2_7 > -1988.941500
t_2_2 - t_1_7 - 2000.000000 s_1_7 > -1995.681500
t_2_2 - t_2_7 - 2000.000000 s_2_7 > -1988.941500
t_1_3 - t_1_7 - 2000.000000 s_1_7 > -1995.681500
t_1_3 - t_2_7 - 2000.000000 s_2_7 > -1988.941500
t_2_3 - t_1_7 - 2000.000000 s_1_7 > -1995.681500
t_2_3 - t_2_7 - 2000.000000 s_2_7 > -1988.941500
t_1_4 - t_1_7 - 2000.000000 s_1_7 > -1995.681500
t_1_4 - t_2_7 - 2000.000000 s_2_7 > -1988.941500
t_2_4 - t_1_7 - 2000.000000 s_1_7 > -1995.681500
t_2_4 - t_2_7 - 2000.000000 s_2_7 > -1988.941500
t_1_5 - t_1_7 - 2000.000000 s_1_7 > -1995.681500
t_1_5 - t_2_7 - 2000.000000 s_2_7 > -1988.941500
t_2_5 - t_1_7 - 2000.000000 s_1_7 > -1995.681500
t_2_5 - t_2_7 - 2000.000000 s_2_7 > -1988.941500
t_1_7 - t_1_6 + 2000.000000 u_1_7_6 > 3.242289
t_1_6 - t_1_7 - 2000.000000 u_1_7_6 > -1998.181500
t_2_7 - t_2_6 + 2000.000000 u_2_7_6 > 15.162974
t_2_6 - t_2_7 - 2000.000000 u_2_7_6 > -1993.941500
t_1_8 - t_1_1 - 2000.000000 s_1_1 > -1996.249678
t_1_8 - t_2_1 - 2000.000000 s_2_1 > -1984.246200
t_2_8 - t_1_1 - 2000.000000 s_1_1 > -1996.249678
t_2_8 - t_2_1 - 2000.000000 s_2_1 > -1984.246200
t_1_8 - t_1_2 - 2000.000000 s_1_2 > -1995.938600
t_1_8 - t_2_2 - 2000.000000 s_2_2 > -1984.083700
t_2_8 - t_1_2 - 2000.000000 s_1_2 > -1995.938600
t_2_8 - t_2_2 - 2000.000000 s_2_2 > -1984.083700
t_1_8 - t_1_3 - 2000.000000 s_1_3 > -1995.563631
t_1_8 - t_2_3 - 2000.000000 s_2_3 > -1980.421300
t_2_8 - t_1_3 - 2000.000000 s_1_3 > -1995.563631
t_2_8 - t_2_3 - 2000.000000 s_2_3 > -1980.421300
t_1_8 - t_1_4 - 2000.000000 s_1_4 > -1993.992724
t_1_8 - t_2_4 - 2000.000000 s_2_4 > -1979.085700
t_2_8 - t_1_4 - 2000.000000 s_1_4 > -1993.992724
t_2_8 - t_2_4 - 2000.000000 s_2_4 > -1979.085700
t_1_8 - t_1_5 - 2000.000000 s_1_5 > -1994.146067
t_1_8 - t_2_5 - 2000.000000 s_2_5 > -1981.566100
t_2_8 - t_1_5 - 2000.000000 s_1_5 > -1994.146067
t_2_8 - t_2_5 - 2000.000000 s_2_5 > -1981.566100
Binary
s_1_1
s_2_1
s_1_2
s_2_2
s_1_3
s_2_3
s_1_4
s_2_4
s_1_5
s_2_5
s_1_6
s_2_6
s_1_7
s_2_7
s_1_8
s_2_8
u_1_1_2
u_2_1_2
u_1_1_3
u_2_1_3
u_1_1_4
u_2_1_4
u_1_1_5
u_2_1_5
u_1_1_7
u_2_1_7
u_1_2_1
u_2_2_1
u_1_2_3
u_2_2_3
u_1_2_4
u_2_2_4
u_1_2_5
u_2_2_5
u_1_2_6
u_2_2_6
u_1_3_1
u_2_3_1
u_1_3_2
u_2_3_2
u_1_3_5
u_2_3_5
u_1_3_6
u_2_3_6
u_1_4_1
u_2_4_1
u_1_4_2
u_2_4_2
u_1_4_5
u_2_4_5
u_1_4_6
u_2_4_6
u_1_5_1
u_2_5_1
u_1_5_2
u_2_5_2
u_1_5_3
u_2_5_3
u_1_5_4
u_2_5_4
u_1_6_2
u_2_6_2
u_1_6_3
u_2_6_3
u_1_6_4
u_2_6_4
u_1_6_7
u_2_6_7
u_1_7_1
u_2_7_1
u_1_7_6
u_2_7_6

End
